44716
1 0 1 1 0 1 1 1 1 0 0 1 1 1 1 1 1 1 1 1 1 0 1 0 1 0 0 1 1 1 
18 19 2 27 2 12 15 27 22 28 29 28 13 13 28 18 3 20 22 0 18 16 5 24 20 18 27 19 29 2 19 19 19 16 27 6 20 8 24 16 18 8 6 29 8 19 13 2 19 14 24 16 24 16 8 6 11 8 18 7 29 0 7 8 13 11 5 14 28 12 18 12 6 8 5 13 20 5 8 16 13 0 8 7 29 13 6 5 27 7 28 6 7 11 2 3 11 6 0 28 28 15 12 18 29 0 29 24 22 3 19 29 27 12 12 8 28 7 17 8 14 11 17 19 19 16 2 11 19 17 28 24 11 20 5 8 3 3 28 14 12 22 11 11 11 5 24 15 27 11 24 17 5 0 8 11 2 15 3 13 13 27 20 24 5 27 5 29 3 15 5 20 19 14 29 2 0 20 29 20 5 15 2 19 12 8 28 13 0 2 2 2 6 29 7 12 7 15 20 19 